numbers = [
    _,5,_,_,9,_,
    _,2,_,_,
    _,_,2,_,_,
    _,_,_,_,_,_,
    3,1,
    _,_,_,_,_,_,
    _,4,_,_,
    _,_,2,_,_,
    _,1,_,_,6,_
];

operators = [
    "+", "*",
    "-",
    "+", "*", "+", "*",
    "+", "+",
    "+", "-",
    "*", "*",
    "-",
    "*", "*", "*", "+",
    "-", "-"
];